SimulationType                MonteCarlo
NumberOfCycles                20000
NumberOfInitializationCycles  10000
PrintEvery                    1000
RestartFile                   no

Forcefield                    GarciaPerez2006ForceField
UseChargesFromCIFFile yes

Framework 0
FrameworkName ESIGES02_clean
UnitCells 2 4 3
ExternalTemperature    313.0
ExternalPressure    50000.0

Component 0 MoleculeName             Ne
            MoleculeDefinition       ExampleDefinitions
            FugacityCoefficient      1.0
            TranslationProbability   0.5
            RotationProbability      0.5
            ReinsertionProbability   0.5
            SwapProbability          1.0
            CreateNumberOfMolecules  0


