SimulationType                MonteCarlo
NumberOfCycles                20
NumberOfInitializationCycles  10
PrintEvery                    1000
RestartFile                   no

Forcefield                    GarciaPerez2006ForceField
UseChargesFromCIFFile None

Framework 0
FrameworkName HEGKAP_clean
UnitCells 2 2 2
ExternalTemperature    1.0
ExternalPressure    100000.0

Component 0 MoleculeName             N2
            MoleculeDefinition       ExampleDefinitions
            FugacityCoefficient      1.0
            TranslationProbability   0.5
            RotationProbability      0.5
            ReinsertionProbability   0.5
            SwapProbability          1.0
            CreateNumberOfMolecules  0


